187206.69,46.59,57.78
195702.41,44.57,55.27
173939.68,50.15,62.19
212372.71,41.07,50.93
220194.19,39.61,49.13
186334.87,46.81,58.05
172083.68,50.69,62.86
190907.66,45.69,56.66
197891.74,44.08,54.66
174027.56,50.12,62.16
194455.95,44.86,55.63
202326.7,43.11,53.46
190844.02,45.71,56.68
177734.95,49.08,60.86
206034.27,42.34,52.5
180347.21,48.37,59.98
208149.91,41.91,51.97
189840.84,45.95,56.98
201248.28,43.34,53.75
196288.63,44.44,55.11
